452 5
10 10 10 10 10 

0 0 0 0 0 0 1 2 
0 0 0 0 0 0 4 3 7 8 12 
1 0 0 0 0 1 2 11 4 
7 0 0 0 0 3 1 5 
8 0 0 0 0 6 2 10 6 
4 0 0 0 0 9 1 9 
2 0 0 0 0 5 1 11 
2 0 0 0 0 5 1 9 
3 0 0 0 0 5 1 13 
3 0 0 0 0 6 1 13 
9 0 0 0 0 6 1 13 
6 0 0 0 0 4 1 13 
0 0 0 0 0 0 4 14 56 98 140 
0 0 0 0 0 0 2 15 17 
8 0 1 1 1 1 1 16 
4 0 5 4 9 8 2 19 18 
6 0 3 3 6 6 1 18 
7 0 6 9 7 5 4 30 24 22 21 
8 0 6 2 6 2 3 24 22 20 
9 0 5 4 6 6 1 21 
10 0 5 3 7 5 3 28 26 23 
8 0 4 6 5 6 3 34 28 27 
7 0 4 5 6 7 2 34 25 
7 0 4 6 5 4 2 28 25 
2 0 7 3 5 2 1 27 
1 0 4 3 5 4 1 27 
5 0 5 6 6 6 2 36 29 
5 0 5 3 4 6 2 36 29 
6 0 3 5 4 6 3 38 33 31 
1 0 6 6 3 3 3 40 35 34 
2 0 10 6 5 2 1 32 
10 0 4 4 6 7 4 45 43 40 35 
10 0 4 4 2 5 3 45 43 35 
3 0 5 8 3 2 2 45 38 
3 0 8 4 4 4 1 37 
9 0 3 7 3 7 3 46 45 39 
5 0 8 4 4 3 2 44 39 
9 0 4 5 4 6 2 43 41 
7 0 3 6 2 9 2 47 41 
3 0 6 3 5 4 2 46 42 
1 0 6 6 8 4 1 42 
10 0 5 6 5 5 2 49 48 
9 0 2 6 3 5 1 46 
10 0 10 7 5 6 1 46 
5 0 9 5 3 9 3 54 48 448 
1 0 5 4 6 2 1 47 
10 0 6 4 7 4 3 54 53 50 
8 0 2 6 8 3 2 53 50 
2 0 6 10 6 9 3 54 53 52 
7 0 3 4 8 3 1 51 
6 0 6 4 7 5 1 52 
10 0 4 3 5 5 1 55 
7 0 3 10 2 7 1 55 
8 0 5 5 4 7 1 55 
0 0 0 0 0 0 1 452 
0 0 0 0 0 0 2 57 58 
10 1 1 0 1 1 1 59 
2 7 7 0 6 3 1 59 
8 8 4 0 5 2 2 61 60 
1 6 5 0 1 10 4 69 65 64 62 
7 6 4 0 7 4 4 69 65 64 63 
5 2 5 0 6 7 1 63 
4 4 4 0 3 4 3 68 67 66 
1 5 2 0 4 6 3 68 67 66 
3 5 4 0 6 3 3 68 67 66 
9 4 6 0 6 4 2 73 70 
1 4 3 0 3 3 2 73 70 
10 5 7 0 5 10 2 73 70 
4 4 4 0 7 6 2 73 72 
8 9 7 0 5 6 1 71 
3 8 6 0 5 3 1 72 
10 2 4 0 6 8 2 75 74 
8 5 5 0 4 6 1 74 
6 2 7 0 6 3 3 78 77 76 
9 4 6 0 4 8 3 79 78 77 
3 6 5 0 3 7 3 84 81 79 
2 4 3 0 8 6 3 84 83 80 
2 5 1 0 6 3 2 81 80 
8 3 7 0 5 4 1 80 
10 6 2 0 5 7 2 86 82 
5 4 6 0 6 7 1 83 
1 7 5 0 9 2 2 87 85 
1 4 4 0 5 5 3 87 85 192 
7 6 7 0 4 5 2 88 86 
10 5 6 0 7 5 1 88 
8 5 7 0 5 3 1 87 
4 3 6 0 4 4 3 91 90 89 
7 8 5 0 4 4 3 91 90 89 
5 6 6 0 3 5 2 93 92 
5 6 4 0 4 5 2 93 92 
1 5 5 0 10 7 2 94 93 
1 8 5 0 5 3 2 96 94 
6 4 7 0 5 8 2 96 95 
9 6 9 0 3 4 1 95 
6 3 5 0 4 5 1 97 
6 5 4 0 5 4 1 97 
0 0 0 0 0 0 1 452 
0 0 0 0 0 0 2 99 102 
9 0 1 1 1 1 1 100 
1 0 4 5 5 6 2 103 101 
2 0 6 5 3 3 4 118 109 108 104 
3 0 3 7 6 2 3 118 108 105 
9 0 4 2 3 5 5 126 123 118 110 107 
8 0 7 6 9 8 1 105 
7 0 7 6 5 6 2 110 106 
8 0 5 3 6 5 2 123 107 
6 0 3 6 5 4 3 127 120 111 
9 0 3 4 2 6 2 127 110 
6 0 4 6 5 5 5 131 127 120 115 113 
3 0 7 4 5 4 3 120 115 112 
4 0 3 6 4 4 2 115 112 
3 0 3 6 5 6 2 131 113 
7 0 6 4 5 10 1 114 
3 0 4 4 5 9 4 138 137 124 116 
3 0 5 5 4 5 2 124 116 
3 0 8 7 5 4 2 136 117 
6 0 5 5 7 5 2 130 119 
8 0 8 7 10 6 3 130 127 122 
5 0 3 6 3 5 1 121 
4 0 7 8 10 3 1 121 
4 0 7 4 6 3 1 122 
8 0 7 4 7 4 2 134 125 
1 0 5 3 4 3 2 128 127 
2 0 3 8 2 6 2 130 128 
9 0 6 3 6 5 2 135 129 
1 0 4 5 7 4 2 134 130 
5 0 6 7 3 5 2 135 132 
5 0 4 4 7 4 3 134 133 355 
5 0 3 4 5 5 1 132 
10 0 8 5 2 5 1 132 
6 0 4 2 6 8 1 132 
5 0 5 8 4 6 1 133 
7 0 7 7 8 6 1 139 
7 0 3 6 3 7 1 139 
2 0 4 4 7 7 1 139 
4 0 9 3 5 2 1 139 
8 0 5 6 1 4 1 139 
10 0 4 4 4 4 1 139 
0 0 0 0 0 0 1 452 
0 0 0 0 0 0 4 141 143 145 150 
6 1 0 0 0 0 1 142 
7 4 0 0 0 0 3 148 144 341 
10 5 0 0 0 0 3 149 148 147 
7 5 0 0 0 0 1 146 
7 9 0 0 0 0 1 146 
10 7 0 0 0 0 1 147 
9 3 0 0 0 0 1 151 
5 5 0 0 0 0 1 151 
4 5 0 0 0 0 1 151 
9 6 0 0 0 0 1 151 
0 0 0 0 0 0 5 152 164 196 228 260 
0 0 0 0 0 0 1 153 
1 0 0 0 0 1 4 159 158 156 154 
1 0 0 0 0 4 1 155 
9 0 0 0 0 9 1 157 
10 0 0 0 0 5 1 157 
1 0 0 0 0 5 3 162 161 160 
4 0 0 0 0 5 2 160 293 
6 0 0 0 0 6 1 160 
4 0 0 0 0 5 1 163 
5 0 0 0 0 3 1 163 
2 0 0 0 0 7 1 163 
0 0 0 0 0 0 5 292 304 326 348 370 
0 0 0 0 0 0 3 165 166 194 
10 0 3 1 1 0 2 193 167 
5 0 8 8 5 0 3 193 175 168 
2 0 6 5 6 0 2 175 168 
3 0 6 5 3 0 1 169 
3 0 8 6 2 0 3 192 191 170 
10 0 5 5 6 0 1 171 
9 0 3 5 4 0 2 190 172 
1 0 1 3 7 0 2 189 173 
10 0 4 7 3 0 2 188 174 
1 0 5 5 2 0 1 176 
2 0 5 6 7 0 3 187 179 178 
5 0 3 5 9 0 2 187 177 
4 0 10 6 4 0 1 178 
7 0 5 5 6 0 3 186 182 180 
10 0 3 5 6 0 3 186 182 180 
10 0 5 6 7 0 3 185 183 181 
2 0 10 3 6 0 1 184 
10 0 6 5 6 0 1 183 
5 0 5 6 5 0 1 195 
2 0 3 4 4 0 1 195 
3 0 4 5 6 0 1 195 
10 0 4 9 4 0 1 195 
1 0 2 5 4 0 1 195 
4 0 6 2 7 0 1 195 
4 0 4 3 4 0 1 195 
10 0 5 6 8 0 1 195 
6 0 6 5 3 0 2 195 410 
10 0 5 5 5 0 1 195 
7 0 3 4 3 0 1 195 
2 0 7 5 7 0 1 195 
0 0 0 0 0 0 1 452 
0 0 0 0 0 0 3 197 198 226 
3 0 0 3 1 3 2 225 199 
10 0 0 5 3 1 2 225 199 
7 0 0 5 5 4 2 204 200 
1 0 0 9 3 3 2 209 201 
6 0 0 3 7 5 4 224 218 202 406 
3 0 0 4 2 4 1 203 
7 0 0 9 3 4 2 212 205 
9 0 0 6 8 6 5 217 216 212 209 207 
4 0 0 5 4 3 2 217 206 
3 0 0 6 5 5 2 216 207 
7 0 0 5 7 4 1 208 
7 0 0 6 5 6 2 223 210 
2 0 0 3 4 9 1 210 
1 0 0 4 8 4 1 211 
5 0 0 5 9 4 3 222 215 213 
7 0 0 2 7 9 4 222 221 220 214 
9 0 0 2 6 6 3 221 220 214 
3 0 0 2 5 7 1 219 
1 0 0 10 3 9 1 220 
5 0 0 4 2 5 1 219 
9 0 0 4 5 10 1 223 
7 0 0 6 7 3 1 219 
6 0 0 6 4 4 1 227 
8 0 0 4 4 4 1 227 
8 0 0 5 6 3 1 227 
5 0 0 3 6 4 1 227 
9 0 0 5 5 5 1 227 
1 0 0 4 7 7 1 227 
3 0 0 8 5 5 1 227 
9 0 0 7 4 4 1 227 
0 0 0 0 0 0 1 452 
0 0 0 0 0 0 5 229 255 256 257 258 
5 1 4 1 0 0 2 254 230 
1 4 5 10 0 0 4 253 252 251 231 
9 4 4 3 0 0 1 232 
9 4 4 4 0 0 2 250 233 
9 2 4 6 0 0 1 234 
6 7 6 5 0 0 2 249 235 
4 3 5 7 0 0 2 248 236 
1 8 6 2 0 0 2 247 237 
10 4 2 2 0 0 1 238 
7 4 7 8 0 0 2 246 239 
8 4 3 3 0 0 3 245 244 240 
2 4 5 5 0 0 1 241 
8 3 8 6 0 0 1 242 
5 8 8 3 0 0 1 243 
3 4 7 3 0 0 1 259 
6 6 7 5 0 0 1 259 
1 7 4 7 0 0 1 259 
8 4 6 5 0 0 1 259 
1 8 6 4 0 0 1 259 
6 3 4 7 0 0 2 259 380 
3 4 6 9 0 0 1 259 
4 7 3 3 0 0 1 259 
4 5 3 9 0 0 1 259 
6 7 10 5 0 0 1 259 
7 5 5 8 0 0 1 259 
2 5 4 5 0 0 1 259 
1 4 4 3 0 0 1 259 
4 5 2 4 0 0 1 259 
4 6 5 5 0 0 1 259 
7 10 3 3 0 0 1 259 
0 0 0 0 0 0 1 452 
0 0 0 0 0 0 3 261 262 279 
2 1 1 1 0 0 2 290 263 
4 1 6 3 0 0 2 290 263 
6 6 7 7 0 0 3 267 264 429 
3 3 4 4 0 0 2 271 265 
1 3 8 5 0 0 2 289 266 
2 3 5 3 0 0 2 277 268 
3 5 2 4 0 0 2 271 269 
1 4 6 6 0 0 1 269 
1 6 6 1 0 0 3 283 274 270 
2 4 5 6 0 0 2 280 272 
1 4 7 7 0 0 2 283 272 
4 7 4 6 0 0 1 273 
1 4 6 5 0 0 2 288 275 
9 5 6 2 0 0 2 288 276 
4 7 7 8 0 0 1 276 
10 3 3 4 0 0 3 287 282 278 
10 6 3 7 0 0 2 287 278 
8 5 4 4 0 0 3 286 284 281 
9 6 7 4 0 0 2 286 282 
1 6 4 4 0 0 1 281 
5 3 5 2 0 0 1 285 
8 7 7 5 0 0 1 284 
10 2 7 5 0 0 1 288 
2 5 6 7 0 0 1 291 
10 3 3 6 0 0 1 291 
4 9 4 4 0 0 1 291 
2 8 6 5 0 0 1 291 
1 8 4 8 0 0 1 291 
6 7 4 10 0 0 1 291 
10 9 3 7 0 0 1 291 
0 0 0 0 0 0 1 452 
0 0 0 0 0 0 2 293 294 
6 0 1 0 0 0 2 296 295 
7 0 3 0 0 0 3 300 298 297 
10 0 6 0 0 0 2 300 297 
7 0 7 0 0 0 2 298 297 
3 0 3 0 0 0 2 301 299 
9 0 7 0 0 0 2 301 299 
4 0 6 0 0 0 1 302 
1 0 5 0 0 0 1 301 
10 0 7 0 0 0 1 303 
9 0 5 0 0 0 1 303 
0 0 0 0 0 0 5 392 404 416 428 440 
0 0 0 0 0 0 3 305 307 314 
6 1 0 0 1 0 1 306 
2 10 0 0 7 0 3 324 317 308 
9 5 0 0 5 0 2 321 308 
9 5 0 0 9 0 3 323 322 309 
8 5 0 0 5 0 2 316 310 
10 7 0 0 5 0 2 320 311 
4 5 0 0 7 0 1 312 
7 6 0 0 5 0 1 313 
5 5 0 0 2 0 1 315 
2 4 0 0 4 0 1 315 
7 4 0 0 6 0 1 318 
10 4 0 0 3 0 1 319 
6 10 0 0 6 0 1 321 
9 6 0 0 2 0 1 325 
6 4 0 0 4 0 1 325 
6 4 0 0 5 0 1 325 
3 5 0 0 8 0 1 325 
6 5 0 0 6 0 1 325 
7 2 0 0 2 0 1 325 
7 3 0 0 8 0 1 325 
0 0 0 0 0 0 1 452 
0 0 0 0 0 0 2 327 328 
5 0 1 0 0 1 2 333 329 
1 0 3 0 0 1 3 341 332 330 
3 0 6 0 0 7 2 341 331 
2 0 5 0 0 6 3 336 334 333 
3 0 4 0 0 7 2 336 332 
4 0 6 0 0 3 1 334 
4 0 6 0 0 4 3 344 338 337 
6 0 5 0 0 4 1 335 
7 0 5 0 0 5 3 344 343 337 
9 0 6 0 0 3 3 344 343 337 
8 0 10 0 0 6 2 340 339 
2 0 4 0 0 7 2 343 342 
8 0 8 0 0 5 1 342 
2 0 5 0 0 4 1 342 
9 0 10 0 0 5 1 343 
5 0 3 0 0 8 1 345 
9 0 4 0 0 5 1 345 
2 0 3 0 0 8 1 346 
6 0 2 0 0 4 1 347 
3 0 4 0 0 7 1 347 
0 0 0 0 0 0 1 452 
0 0 0 0 0 0 2 349 350 
6 0 1 0 1 0 2 353 352 
10 0 3 0 6 0 2 355 351 
1 0 6 0 3 0 1 352 
8 0 5 0 3 0 3 359 358 354 
9 0 5 0 8 0 3 358 356 355 
6 0 4 0 5 0 1 356 
5 0 8 0 9 0 3 362 361 360 
10 0 5 0 5 0 1 357 
10 0 4 0 5 0 3 366 362 360 
4 0 5 0 3 0 3 366 362 360 
10 0 8 0 5 0 3 368 366 365 
1 0 5 0 7 0 2 364 363 
4 0 2 0 2 0 2 366 365 
8 0 6 0 5 0 2 368 367 
6 0 5 0 4 0 1 365 
2 0 5 0 5 0 1 365 
3 0 7 0 5 0 1 367 
2 0 8 0 7 0 1 367 
8 0 3 0 6 0 1 369 
1 0 5 0 6 0 1 369 
0 0 0 0 0 0 1 452 
0 0 0 0 0 0 2 371 373 
3 0 1 0 0 1 2 376 372 
7 0 4 0 0 3 1 374 
3 0 5 0 0 6 1 374 
10 0 4 0 0 2 3 379 377 375 
3 0 4 0 0 6 3 390 381 378 
1 0 7 0 0 7 3 382 380 379 
10 0 2 0 0 2 3 384 383 382 
6 0 3 0 0 6 2 384 380 
5 0 4 0 0 4 3 389 388 385 
7 0 8 0 0 6 2 388 383 
6 0 3 0 0 6 2 388 383 
9 0 10 0 0 6 3 390 388 387 
2 0 5 0 0 7 1 385 
10 0 4 0 0 5 2 389 387 
6 0 8 0 0 7 1 386 
8 0 6 0 0 3 1 387 
10 0 5 0 0 6 1 391 
9 0 4 0 0 5 1 391 
4 0 6 0 0 6 1 391 
7 0 7 0 0 6 1 391 
0 0 0 0 0 0 1 452 
0 0 0 0 0 0 2 393 395 
2 1 0 0 0 0 2 402 394 
3 5 0 0 0 0 3 401 398 396 
5 3 0 0 0 0 3 401 400 396 
10 6 0 0 0 0 1 397 
2 6 0 0 0 0 1 399 
7 8 0 0 0 0 1 400 
1 6 0 0 0 0 1 403 
5 4 0 0 0 0 1 403 
5 6 0 0 0 0 1 403 
5 5 0 0 0 0 1 403 
0 0 0 0 0 0 1 452 
0 0 0 0 0 0 4 405 408 412 413 
4 0 1 0 0 0 3 410 407 406 
2 0 3 0 0 0 1 409 
5 0 3 0 0 0 1 409 
7 0 5 0 0 0 1 409 
10 0 5 0 0 0 1 411 
10 0 8 0 0 0 1 411 
10 0 4 0 0 0 1 414 
2 0 7 0 0 0 1 414 
3 0 8 0 0 0 1 414 
6 0 6 0 0 0 1 415 
0 0 0 0 0 0 1 452 
0 0 0 0 0 0 2 417 418 
8 0 0 0 0 1 2 422 419 
10 0 0 0 0 4 1 419 
3 0 0 0 0 4 2 421 420 
8 0 0 0 0 10 3 426 424 423 
4 0 0 0 0 4 2 426 424 
9 0 0 0 0 5 2 426 423 
6 0 0 0 0 5 1 425 
5 0 0 0 0 3 1 425 
6 0 0 0 0 7 1 427 
5 0 0 0 0 7 1 427 
0 0 0 0 0 0 1 452 
0 0 0 0 0 0 4 429 430 434 438 
10 1 0 0 0 0 3 437 436 432 
10 5 0 0 0 0 1 431 
2 5 0 0 0 0 2 436 432 
1 6 0 0 0 0 1 433 
7 3 0 0 0 0 1 435 
9 5 0 0 0 0 1 435 
8 6 0 0 0 0 1 439 
9 4 0 0 0 0 1 439 
4 10 0 0 0 0 1 439 
10 5 0 0 0 0 1 439 
0 0 0 0 0 0 1 452 
0 0 0 0 0 0 4 441 443 444 447 
5 1 0 0 0 0 1 442 
10 3 0 0 0 0 3 450 449 445 
6 8 0 0 0 0 3 450 449 445 
8 7 0 0 0 0 2 449 445 
5 5 0 0 0 0 1 446 
5 6 0 0 0 0 1 448 
3 4 0 0 0 0 1 449 
3 6 0 0 0 0 1 451 
3 8 0 0 0 0 1 451 
5 2 0 0 0 0 1 451 
0 0 0 0 0 0 1 452 
0 0 0 0 0 0 0 
